(declare-fun temp456_1 () (_ BitVec 64))
(declare-fun var140390 () (_ BitVec 64))
(declare-fun temp456_3 () (_ BitVec 64))
(declare-fun temp456_2 () (_ BitVec 64))
(declare-fun temp456_4 () (_ BitVec 64))
(declare-fun var2565548 () (_ BitVec 64))
(declare-fun temp456_5 () (_ BitVec 64))
(declare-fun var2634158 () (_ BitVec 64))
(declare-fun temp456_7 () (_ BitVec 64))
(declare-fun temp456_6 () (_ BitVec 64))
(declare-fun temp456_9 () (_ BitVec 64))
(declare-fun temp456_8 () (_ BitVec 64))
(declare-fun temp456_10 () (_ BitVec 64))
(declare-fun var2634159 () (_ BitVec 64))
(declare-fun temp456_11 () (_ BitVec 64))
(declare-fun var4203099 () (_ BitVec 64))
(declare-fun temp456_12 () (_ BitVec 64))
(declare-fun var77802 () (_ BitVec 64))
(declare-fun temp456_13 () (_ BitVec 64))
(declare-fun var77803 () (_ BitVec 64))
(declare-fun temp456_14 () (_ BitVec 64))
(declare-fun temp456_16 () (_ BitVec 64))
(declare-fun temp456_15 () (_ BitVec 64))
(declare-fun temp456_17 () (_ BitVec 64))
(declare-fun var4791965 () (_ BitVec 64))
(assert (= temp456_1 #x0000000000000000))
(assert (= var140390 temp456_1))
(assert (= temp456_3 #xffffffffffffffff))
(assert (= temp456_2 temp456_3))
(assert (= temp456_4 #x0000000000000000))
(assert (= var2565548 temp456_4))
(assert (= temp456_5 #x0000000000000000))
(assert (= var2634158 temp456_5))
(assert (= temp456_7 #x0000000000000000))
(assert (= temp456_6 temp456_7))
(assert (= temp456_9 #x0000000000000001))
(assert (= temp456_8 temp456_9))
(assert (= temp456_10 #x0000000000000001))
(assert (= var2634159 (bvadd var2634158 temp456_10)))
(assert (= temp456_11 #x0000000000000001))
(assert (= var4203099 temp456_11))
(assert (= temp456_12 #x0000000000000014))
(assert (= var77802 temp456_12))
(assert (= temp456_13 #x0000000000000014))
(assert (= var77803 (ite (= var77802 temp456_13) #x0000000000000001 #x0000000000000000)))
(assert (= temp456_14 #x0000000000000001))
(assert (= var77803 temp456_14))
(assert (= temp456_16 #x0000000000000001))
(assert (= temp456_15 temp456_16))
(assert (= temp456_17 #x0000000000000002))
(assert (= var4791965 temp456_17))
(model-add temp456_1 () (_ BitVec 64) #x0000000000000000)
(model-add var140390 () (_ BitVec 64) #x0000000000000000)
(model-add temp456_3 () (_ BitVec 64) #xffffffffffffffff)
(model-add temp456_2 () (_ BitVec 64) #xffffffffffffffff)
(model-add temp456_4 () (_ BitVec 64) #x0000000000000000)
(model-add var2565548 () (_ BitVec 64) #x0000000000000000)
(model-add temp456_5 () (_ BitVec 64) #x0000000000000000)
(model-add var2634158 () (_ BitVec 64) #x0000000000000000)
(model-add temp456_7 () (_ BitVec 64) #x0000000000000000)
(model-add temp456_6 () (_ BitVec 64) #x0000000000000000)
(model-add temp456_9 () (_ BitVec 64) #x0000000000000001)
(model-add temp456_8 () (_ BitVec 64) #x0000000000000001)
(model-add temp456_10 () (_ BitVec 64) #x0000000000000001)
(model-add var2634159 () (_ BitVec 64) #x0000000000000001)
(model-add temp456_11 () (_ BitVec 64) #x0000000000000001)
(model-add var4203099 () (_ BitVec 64) #x0000000000000001)
(model-add temp456_12 () (_ BitVec 64) #x0000000000000014)
(model-add var77802 () (_ BitVec 64) #x0000000000000014)
(model-add temp456_13 () (_ BitVec 64) #x0000000000000014)
(model-add var77803 () (_ BitVec 64) #x0000000000000001)
(model-add temp456_14 () (_ BitVec 64) #x0000000000000001)

